c read Graph
c width = 529
c time = 1008 ms
c width = 25
c time = 1311 ms
c width = 23
c time = 2820 ms
c width = 22
c time = 4679 ms
c width = 21
c time = 5879 ms
c width = 21
c time = 119906 ms
s td 768 22 804
b 1 1 156 172 552
b 2 34 156 172 335 552
b 3 34 172 335 466 552
b 4 34 172 292 466 552 772
b 5 116 172 292 466 476 537 552 635 691 721 735 772
b 6 116 154 172 292 466 476 537 620 635 691 721 735 772
b 7 116 154 172 178 292 431 466 476 537 620 628 635 721 735 758 772
b 8 116 154 172 178 431 466 476 537 620 628 635 721 735 758 772
b 9 178 292 431 628 635 758 773
b 10 292 431 628 635 734 758 773
b 11 292 431 628 635 733 734 773
b 12 112 292 733 773
b 13 292 431 441 628 635 733 734 773
b 14 6 431 441 733 734 773
b 15 6 343 441 733 734 773
b 16 343 733 748 773
b 17 6 343 560 773
b 18 6 300 343 441 734
b 19 111 300 441 734
b 20 441 478 635 734
b 21 292 326 441 628 635 733
b 22 128 326 441 635
b 23 178 431 604 628 721 758 772
b 24 178 481 604 628 721 758 772
b 25 178 481 514 604 721 758 772
b 26 178 264 481 514 604 721 772
b 27 264 302 481 514 604 721 772
b 28 302 481 514 558 721
b 29 170 302 481 558 721
b 30 170 267 481 558 721
b 31 14 170 267 558
b 32 237 264 302 514 604 721 772
b 33 237 604 683 772
b 34 237 264 302 538 604
b 35 264 324 538 604
b 36 237 538 593 604
b 37 154 537 620 691 718
b 38 537 620 622 691 718
b 39 537 622 688 691 718
b 40 270 537 622 688 718
b 41 270 537 622 718 738
b 42 270 289 537 622 738
b 43 289 537 622 738 796
b 44 119 289 537 622 796
b 45 48 119 537 622
b 46 119 491 537 796
b 47 119 125 289 796
b 48 289 738 791 796
b 49 262 270 289 738
b 50 577 688 691 718
b 51 116 172 292 476 533 537 552 635 691 721 735 772
b 52 155 172 292 476 533 537 552 635 691 735
b 53 155 172 292 414 691 735
b 54 155 172 328 414 735
b 55 155 172 328 414 470
b 56 155 172 379 470
b 57 124 155 328 470
b 58 106 155 476 533 552
b 59 116 172 274 533 691 772
b 60 116 172 274 525 533
b 61 116 274 525 533 579
b 62 54 274 525 579
b 63 35 116 274 579
b 64 156 335 552 743
b 65 154 178 431 440 553 585 612 620 628 659 758
b 66 116 263 265 368 468 696 801
b 67 178 362 553 585 652 663 758
b 68 154 178 421 620 698 716 758
b 69 59 114 231 466 531
b 70 26 114 231 466 531
b 71 26 114 231 466 672
b 72 265 440 676 735
b 73 78 181 246 663 697 793
b 74 222 299 368 468 696 735 801
b 75 116 265 368 440 468 696 735 801
b 76 222 368 440 466 468 696 735 801
b 77 26 116 231 440 466 672
b 78 26 154 178 181 231 304 368 370 431 440 468 476 553 576 585 620 628 659 696 758 801
b 79 116 154 172 178 431 466 476 503 537 620 628 635 721 735 758
b 80 116 154 172 178 368 431 440 466 468 476 503 620 628 696 735 758 801
b 81 26 116 154 172 178 231 368 431 440 466 468 476 503 620 628 696 758 801
b 82 26 154 172 178 181 231 304 368 370 431 440 468 476 503 553 576 585 620 628 696 758 801
b 83 78 154 178 392 518 576 620 758 793
b 84 154 178 421 430 518 576 620 716 758
b 85 178 430 553 576 585 652 663 758 793
b 86 26 154 172 178 181 231 304 368 370 430 503 553 576 585 620 663 696 758 793
b 87 26 154 172 178 181 231 304 368 370 430 503 518 576 620 663 696 758 793
b 88 26 78 154 172 178 181 231 304 368 370 421 430 518 576 620 663 696 758 793
b 89 26 78 172 181 231 304 368 370 371 421 430 518 663 696 697
b 90 26 78 172 181 231 304 368 370 421 430 518 663 696 697 793
b 91 78 172 181 231 304 368 370 421 430 518 663 696 697 793
b 92 384 503 537 635 721
b 93 116 258 263 265 368 696 801
b 94 116 198 258 263 265 696 801
b 95 116 191 198 258 263 265 801
b 96 116 191 198 258 263 265 549
b 97 191 258 265 522 549
b 98 258 522 549 689
b 99 23 258 265 522
b 100 53 191 265 522
b 101 116 191 198 263 265 407 549
b 102 198 263 372 407 549
b 103 198 263 372 396
b 104 198 372 407 573
b 105 116 133 191 198 265 407
b 106 133 198 218 407
b 107 26 154 178 181 231 304 368 370 431 468 476 553 566 576 585 620 628 659 696 758 764 801
b 108 26 75 154 231 304 368 370 431 468 476 553 566 585 620 628 659 696 764 801
b 109 26 75 304 368 370 468 659 696 737 801
b 110 26 75 304 368 370 419 468 659 696 737
b 111 75 224 304 368 370 419 468 659 696 737
b 112 75 141 224 304 370 419 468 659 696 737
b 113 141 224 317 419 468 737
b 114 141 224 304 323 419 737
b 115 141 224 419 696 737 789
b 116 26 75 154 231 304 370 417 431 468 476 553 557 566 585 620 628 764 801
b 117 75 154 304 370 417 431 468 476 553 557 566 585 620 628 686 764 801
b 118 15 304 370 468 557 566 686 801
b 119 15 502 566 686
b 120 15 304 357 370 468 557 801
b 121 15 304 357 370 468 706 801
b 122 15 86 304 357 370 468 706
b 123 15 86 304 357 370 597 706
b 124 15 86 357 370 597 706 746
b 125 357 597 695 746
b 126 15 86 134 370 597 706 746
b 127 86 134 453 597 746
b 128 412 453 597 746
b 129 86 453 597 619
b 130 15 71 86 134 370 706
b 131 15 71 134 306 706
b 132 15 71 306 719
b 133 8 15 306 706
b 134 71 134 306 428
b 135 75 154 304 370 417 422 431 476 553 557 566 585 620 628 686 764
b 136 75 154 194 417 422 431 476 505 553 557 585 620 628 686 764
b 137 75 194 417 422 431 476 505 509 553 557 585 621 628 686 764
b 138 431 509 553 585 621 628 668
b 139 266 509 553 585 621 628 668
b 140 266 509 553 585 621 668 784
b 141 149 266 509 585 621 668 784
b 142 149 185 266 509 621 668 784
b 143 135 149 185 266 509 668 784
b 144 135 149 185 208 668
b 145 149 185 208 740
b 146 149 208 668 713
b 147 64 135 208 668
b 148 135 168 266 509 784
b 149 135 168 509 586 784
b 150 109 135 168 586
b 151 149 185 621 625
b 152 75 194 387 417 422 476 505 509 553 557 585 621 764
b 153 194 387 417 422 476 505 509 550 553 557 585 621 764
b 154 194 387 473 476 505 550 557 764
b 155 467 473 476 505 550 557
b 156 467 473 476 557 760
b 157 280 467 473 476 760
b 158 212 280 473 476
b 159 94 280 473 760
b 160 387 417 422 476 509 550 621 764 774
b 161 345 417 422 476 550 621 774
b 162 345 417 422 476 543 774
b 163 417 422 469 543
b 164 311 345 476 543 774
b 165 311 454 476 774
b 166 282 311 543 774
b 167 387 550 553 585 616
b 168 387 434 550 553 616
b 169 387 434 550 584 616
b 170 355 387 434 584 616
b 171 269 355 387 434 616
b 172 269 387 434 605 616
b 173 269 272 387 434 605
b 174 269 272 387 551 605
b 175 256 269 272 551 605
b 176 210 256 269 605
b 177 256 445 551 605
b 178 211 256 272 551
b 179 88 272 387 551
b 180 272 387 434 451
b 181 75 194 387 509 516
b 182 194 476 505 509 621 679 686 764
b 183 476 505 621 679 686 736
b 184 476 679 686 736 771
b 185 338 476 679 736 771
b 186 49 338 476 679
b 187 338 678 679 771
b 188 154 194 381 431 505 620 628
b 189 194 240 381 431 505 620 628
b 190 194 240 381 431 499 505 628
b 191 194 240 278 381 431 499 505
b 192 230 278 381 505
b 193 194 240 278 381 431 499 634
b 194 62 240 278 381 431 634
b 195 62 278 381 595 634
b 196 62 381 591 595
b 197 278 381 595 778
b 198 194 240 243 499 634
b 199 194 240 243 252
b 200 240 243 634 648
b 201 108 194 243 499
b 202 304 370 422 433 686
b 203 370 397 422 433 686
b 204 61 397 422 433 686
b 205 41 61 397 422 433
b 206 41 61 397 433 650
b 207 58 61 433 650
b 208 41 397 433 535 650
b 209 41 397 433 535 715
b 210 41 321 397 535 715
b 211 321 535 710 715
b 212 41 321 397 669 715
b 213 238 321 669 715
b 214 41 91 321 397 669
b 215 41 91 348 669
b 216 17 91 321 669
b 217 41 91 397 646
b 218 3 26 231 417 468 557 566 801
b 219 3 346 557 566
b 220 3 26 231 417 468 489 801
b 221 3 231 313 417 468 489 801
b 222 3 313 417 468 489 640 801
b 223 3 313 417 468 489 618 640
b 224 90 313 417 618
b 225 3 313 468 489 519 618 640
b 226 3 489 519 640 699
b 227 3 47 489 699
b 228 310 489 519 699
b 229 3 382 640 699
b 230 217 313 468 489 519 618
b 231 217 293 313 519 618
b 232 82 293 313 618
b 233 217 273 293 313
b 234 26 154 178 181 231 368 431 468 555 566 576 620 628 629 696 752 758 764 801
b 235 26 154 178 181 231 233 354 368 426 431 468 555 566 620 628 629 696 752 758 764 801
b 236 81 154 161 178 233 354 426 431 474 555 566 620 628 629 752 758 764
b 237 81 161 233 354 404 426 474 555 566 629 752
b 238 81 97 354 404 474 752
b 239 97 354 404 752 781
b 240 97 336 354 752 781
b 241 97 131 336 781
b 242 89 97 336 354
b 243 138 161 404 426 474 629
b 244 138 404 426 627 629
b 245 84 138 404 627 629
b 246 84 404 449 629
b 247 68 84 627 629
b 248 81 161 221 233 404 555
b 249 221 233 404 460 555
b 250 221 233 460 555 610
b 251 221 233 571 610
b 252 129 221 460 610
b 253 81 154 161 178 337 431 474 555 620 628 629 752 758 764
b 254 81 178 337 431 628 758 798
b 255 81 178 337 431 617 628 798
b 256 76 81 337 431 617 628 798
b 257 76 81 337 431 617 667 798
b 258 76 337 431 530 617 667 798
b 259 76 337 530 750 798
b 260 337 356 750 798
b 261 175 530 750 798
b 262 50 76 337 750
b 263 431 442 530 617 667 798
b 264 442 515 530 617 667
b 265 361 515 617 667
b 266 399 442 515 617
b 267 81 169 617 667
b 268 154 161 180 337 431 474 555 620 628 629 752 764
b 269 154 161 180 431 620 628 802
b 270 154 161 180 620 628 702 802
b 271 154 161 180 608 628 702 802
b 272 154 161 180 344 608 702 802
b 273 161 180 344 608 702 763 802
b 274 180 608 702 763 804
b 275 180 608 609 804
b 276 180 444 702 804
b 277 96 161 180 344 608 763 802
b 278 96 161 291 344
b 279 96 344 613 763 802
b 280 344 380 613 802
b 281 165 613 763 802
b 282 96 344 613 779
b 283 180 337 431 474 628 629 703 752 764
b 284 180 242 337 703 764
b 285 297 431 474 628 703
b 286 216 297 474 628 703
b 287 216 297 474 564 703
b 288 216 297 564 703 705
b 289 216 297 559 703 705
b 290 216 286 559 703 705
b 291 286 545 559 703 705
b 292 279 286 545 559 705
b 293 39 279 286 545
b 294 279 545 559 777
b 295 279 484 559 705
b 296 286 437 545 703
b 297 140 216 286 703
b 298 297 418 474 564
b 299 26 181 231 233 347 354 368 426 468 696 801
b 300 347 352 354 368 426 468 696 801
b 301 347 352 354 364
b 302 260 352 368 426 468 696 801
b 303 235 260 352 426 468 696 801
b 304 235 260 352 426 468 581 801
b 305 235 260 284 352 468 581 801
b 306 30 235 260 284 352 468 581
b 307 30 235 260 284 352 581 803
b 308 10 30 235 284 352 581 803
b 309 10 30 235 744 803
b 310 10 235 448 744
b 311 30 188 235 744
b 312 10 235 526 581
b 313 260 284 352 383 803
b 314 260 352 383 720
b 315 31 284 352 383
b 316 260 383 680 803
b 317 26 231 233 234 347 354 468 801
b 318 167 233 234 347
b 319 26 231 234 354 468 638 801
b 320 26 231 234 468 638 711 801
b 321 231 234 468 598 638 711 801
b 322 234 366 468 598 638 711 801
b 323 234 366 406 468 598 638 711
b 324 406 464 598 638
b 325 234 366 406 457 468 598 711
b 326 234 276 366 457 711
b 327 234 276 331 457 711
b 328 271 276 331 457
b 329 268 406 457 468 598 711
b 330 268 406 457 598 709
b 331 268 493 598 709
b 332 277 406 598 709
b 333 268 457 709 757
b 334 233 347 426 468 754 801
b 335 227 347 426 754
b 336 233 468 754 767 801
b 337 432 468 754 767 801
b 338 85 432 754 767 801
b 339 56 85 432 754 767
b 340 4 56 432 767
b 341 56 85 432 546 754
b 342 56 432 546 665 754
b 343 56 432 500 546 665
b 344 500 546 665 755
b 345 56 432 465 500 665
b 346 420 465 500 665
b 347 56 325 432 465 500
b 348 325 423 432 465
b 349 209 325 465 500
b 350 56 275 325 432
b 351 504 555 576 629 752
b 352 179 222 440 466
b 353 222 299 368 468 696 749 801
b 354 222 299 435 468 696 749 801
b 355 143 222 299 435 468 696 749
b 356 130 143 222 299 435 468 749
b 357 130 143 222 299 435 670 749
b 358 152 222 435 670 749
b 359 152 222 435 601 670
b 360 120 152 601 670
b 361 16 130 143 222 299 670 749
b 362 16 130 299 517
b 363 16 130 143 318 670
b 364 130 143 171 318
b 365 143 253 318 670
b 366 16 130 318 425
b 367 26 172 181 231 304 334 368 370 371 421 430 663 696 697
b 368 181 334 421 430 663 783
b 369 181 334 430 726 783
b 370 148 334 430 726
b 371 181 375 430 726
b 372 26 172 231 304 334 368 370 371 424 696 697
b 373 26 231 301 304 334 368 370 371 424 696 697
b 374 26 231 301 334 368 371 424 649 696
b 375 26 228 231 334 368 371 424 649 696
b 376 228 334 424 649 723
b 377 46 228 334 723
b 378 11 26 228 231 368 371 424 696
b 379 11 298 371 424
b 380 11 26 228 231 368 690 696
b 381 11 26 228 231 408 690 696
b 382 11 26 228 231 408 630 690
b 383 11 26 228 261 408 630 690
b 384 11 228 261 408 630 690 756
b 385 11 261 358 690 756
b 386 11 358 690 747
b 387 11 261 351 358
b 388 11 83 228 408 630 690 756
b 389 83 408 630 756 800
b 390 83 630 762 800
b 391 408 615 756 800
b 392 408 630 674 800
b 393 83 102 228 630
b 394 26 231 301 368 649 696 732
b 395 26 301 368 534 649 696 732
b 396 301 368 498 534 649 696 732
b 397 214 301 368 498 534 649 732
b 398 214 301 498 534 548 649 732
b 399 107 301 498 534 548 649 732
b 400 107 416 498 548 732
b 401 107 416 498 662 732
b 402 107 319 416 498 662
b 403 176 319 416 662
b 404 107 301 309 498
b 405 214 490 534 548 649
b 406 214 490 548 556 649
b 407 32 490 548 556
b 408 79 301 304 368 370 371 424 696 697
b 409 79 301 401 424 697
b 410 101 301 401 697
b 411 79 304 359 368 370 371 696
b 412 79 127 304 359 370 371 696
b 413 79 127 304 359 370 371 707
b 414 51 79 127 304 359 371 707
b 415 51 79 127 359 371 463 707
b 416 51 79 127 359 371 459 463
b 417 51 127 459 463 641
b 418 51 438 459 641
b 419 51 127 572 641
b 420 127 388 463 641
b 421 36 51 79 359 371 459
b 422 36 51 57 459
b 423 79 359 446 463 707
b 424 79 225 359 446
b 425 79 219 446 707
b 426 78 181 371 403 421 518
b 427 181 371 403 518 780
b 428 213 371 403 518 780
b 429 117 213 371 403
b 430 213 403 639 780
b 431 181 246 697 700 793
b 432 67 697 700 793
b 433 181 479 700 793
b 434 154 178 421 496 620 698 716
b 435 178 285 421 496 620 698 716
b 436 178 285 421 436 496 698 716
b 437 178 285 421 436 496 656 716
b 438 147 178 421 436 496 656
b 439 147 436 496 656 799
b 440 147 520 656 799
b 441 147 496 506 799
b 442 147 421 488 656
b 443 285 436 477 698 716
b 444 193 285 477 716
b 445 461 477 698 716
b 446 341 436 477 698
b 447 78 154 178 392 620 677 758
b 448 78 154 392 620 660 677 758
b 449 78 154 392 544 620 660 677
b 450 78 154 392 544 660 677 704
b 451 392 544 647 660 704
b 452 281 392 544 647 660
b 453 281 392 544 554 647
b 454 245 281 554 647
b 455 78 154 392 660 677 685 704
b 456 78 154 342 677 685 704
b 457 78 342 536 685
b 458 342 590 677 685 704
b 459 342 528 590 685 704
b 460 220 528 590 704
b 461 154 178 431 440 561 585 612 620 628 659 758
b 462 154 178 431 440 561 585 612 628 659 728 758
b 463 154 178 431 440 561 585 612 655 659 728 758
b 464 440 561 612 655 728 766
b 465 178 207 561 612 655 728
b 466 215 561 585 612 655 728
b 467 413 431 561 612 655 728
b 468 154 561 612 655 659 693 728
b 469 178 259 362 553 585 652 663
b 470 163 259 362 553 585 652 663
b 471 105 163 259 362 553 652 663
b 472 105 163 259 362 652 663 694
b 473 105 259 362 652 694 701
b 474 38 105 652 701
b 475 93 362 652 701
b 476 105 166 259 694 701
b 477 105 166 684 701
b 478 163 362 452 652 663 694
b 479 163 409 452 663
b 480 163 452 475 694
b 481 163 259 283 694
b 482 24 59 114 466 531
b 483 24 59 114 288 531
b 484 59 114 288 531 768
b 485 59 114 288 654 768
b 486 59 114 329 654 768
b 487 59 329 369 654 768
b 488 329 369 714 768
b 489 59 320 329 369 654
b 490 59 312 320 654
b 491 315 320 329 369
b 492 320 369 600 654
b 493 59 288 603 654
b 494 24 59 288 626
b 495 717 752 781
b 496 360 748 773
b 497 182 737 801
b 498 592 736 771
b 499 710 715 761
b 500 60 702 763
b 501 184 696 789
b 502 92 695 746
b 503 677 704 753
b 504 643 676 735
b 505 674 730 800
b 506 205 665 755
b 507 322 659 693
b 508 568 655 758
b 509 151 630 762
b 510 547 628 728
b 511 532 622 691
b 512 569 593 604
b 513 591 595 666
b 514 577 637 688
b 515 95 572 641
b 516 501 561 620
b 517 458 558 721
b 518 553 612 725
b 519 546 739 754
b 520 544 647 661
b 521 536 596 685
b 522 22 525 533
b 523 427 518 780
b 524 514 607 772
b 525 239 506 799
b 526 504 576 644
b 527 223 502 686
b 528 241 499 505
b 529 493 589 709
b 530 385 490 649
b 531 488 570 656
b 532 484 559 673
b 533 378 479 793
b 534 411 467 760
b 535 44 463 707
b 536 461 477 524
b 537 290 460 555
b 538 439 457 711
b 539 454 567 774
b 540 453 619 776
b 541 87 449 629
b 542 444 541 804
b 543 196 442 530
b 544 441 478 632
b 545 18 440 766
b 546 201 436 496
b 547 136 435 670
b 548 434 447 550
b 549 377 433 535
b 550 72 422 469
b 551 350 420 500
b 552 418 564 602
b 553 121 417 640
b 554 416 732 765
b 555 413 431 770
b 556 412 574 597
b 557 386 409 452
b 558 20 408 615
b 559 373 406 464
b 560 404 487 566
b 561 330 399 515
b 562 287 387 451
b 563 384 410 503
b 564 383 712 720
b 565 236 381 778
b 566 380 529 613
b 567 204 375 430
b 568 122 372 396
b 569 366 513 638
b 570 113 362 663
b 571 257 361 617
b 572 357 565 706
b 573 356 687 750
b 574 40 355 584
b 575 118 354 364
b 576 349 351 358
b 577 346 511 557
b 578 345 455 543
b 579 344 588 779
b 580 103 343 560
b 581 342 528 792
b 582 341 698 786
b 583 126 338 678
b 584 334 340 783
b 585 329 642 714
b 586 328 414 527
b 587 325 333 423
b 588 229 324 538
b 589 322 485 693
b 590 12 320 600
b 591 63 319 498
b 592 137 317 468
b 593 2 315 369
b 594 173 312 654
b 595 310 489 775
b 596 29 306 719
b 597 304 323 563
b 598 301 534 562
b 599 226 299 749
b 600 298 371 398
b 601 13 297 705
b 602 292 326 787
b 603 289 587 791
b 604 288 395 626
b 605 187 286 437
b 606 248 285 421
b 607 284 575 581
b 608 283 594 694
b 609 282 311 482
b 610 281 392 483
b 611 164 279 777
b 612 153 277 598
b 613 275 432 741
b 614 66 273 293
b 615 43 271 331
b 616 270 507 718
b 617 98 269 616
b 618 268 327 757
b 619 266 521 621
b 620 264 302 611
b 621 139 263 549
b 622 262 540 738
b 623 199 261 756
b 624 260 645 680
b 625 195 258 689
b 626 256 445 729
b 627 246 251 697
b 628 245 365 554
b 629 243 252 510
b 630 242 296 764
b 631 69 240 648
b 632 238 321 405
b 633 189 237 683
b 634 235 394 448
b 635 234 244 276
b 636 158 230 278
b 637 228 402 690
b 638 104 227 426
b 639 224 368 790
b 640 99 221 571
b 641 220 376 590
b 642 100 219 446
b 643 218 400 407
b 644 217 486 519
b 645 216 474 682
b 646 37 215 585
b 647 214 548 631
b 648 213 539 639
b 649 212 303 473
b 650 174 211 551
b 651 210 605 692
b 652 209 465 582
b 653 74 208 713
b 654 198 573 795
b 655 110 193 716
b 656 188 462 744
b 657 185 363 625
b 658 181 202 347
b 659 180 492 609
b 660 157 179 466
b 661 162 178 207
b 662 176 471 662
b 663 175 429 798
b 664 7 172 424
b 665 142 171 318
b 666 115 170 481
b 667 169 653 667
b 668 168 232 509
b 669 132 167 233
b 670 166 259 664
b 671 160 165 802
b 672 28 163 475
b 673 33 161 608
b 674 156 367 743
b 675 155 379 494
b 676 154 693 759
b 677 70 152 222
b 678 149 523 740
b 679 146 148 726
b 680 147 520 651
b 681 143 253 472
b 682 141 370 623
b 683 140 703 731
b 684 138 627 722
b 685 135 353 784
b 686 133 191 769
b 687 80 131 336
b 688 130 250 425
b 689 129 610 742
b 690 128 583 635
b 691 127 388 797
b 692 125 658 796
b 693 124 470 578
b 694 120 391 601
b 695 119 249 491
b 696 117 403 708
b 697 116 672 745
b 698 114 495 768
b 699 112 389 733
b 700 111 314 734
b 701 109 393 586
b 702 108 194 497
b 703 107 309 542
b 704 55 106 476
b 705 52 105 684
b 706 101 197 401
b 707 96 291 480
b 708 94 280 456
b 709 93 652 727
b 710 73 91 348
b 711 21 90 618
b 712 89 97 599
b 713 88 272 307
b 714 86 134 614
b 715 27 85 767
b 716 83 102 390
b 717 82 313 681
b 718 65 79 225
b 719 78 660 751
b 720 76 81 512
b 721 75 190 516
b 722 75 186 231
b 723 75 190 508
b 724 75 339 508
b 725 75 339 606
b 726 75 580 606
b 727 71 428 671
b 728 68 84 794
b 729 67 294 700
b 730 64 332 668
b 731 62 200 634
b 732 45 61 397
b 733 59 316 603
b 734 19 58 650
b 735 57 374 459
b 736 54 206 579
b 737 53 265 782
b 738 51 255 438
b 739 50 337 636
b 740 9 49 679
b 741 48 254 537
b 742 47 183 699
b 743 46 450 723
b 744 5 41 646
b 745 39 295 545
b 746 38 701 788
b 747 36 150 359
b 748 35 274 675
b 749 34 308 335
b 750 32 443 556
b 751 31 42 352
b 752 30 145 803
b 753 26 419 785
b 754 24 531 657
b 755 23 123 522
b 756 18 159 766
b 757 18 144 440
b 758 18 144 624
b 759 17 415 669
b 760 16 77 517
b 761 14 192 267
b 762 11 724 747
b 763 10 25 526
b 764 8 15 633
b 765 6 300 305
b 766 4 56 247
b 767 3 203 382
b 768 1 177 552
1 768
1 2
2 749
2 64
2 3
3 4
4 5
5 51
5 6
6 37
6 7
7 79
7 23
7 9
7 8
9 10
10 11
11 12
11 13
12 699
13 20
13 14
13 21
14 15
15 16
15 17
15 18
16 496
17 580
18 765
18 19
19 700
20 544
21 602
21 22
22 690
23 24
24 25
25 524
25 26
26 27
27 620
27 28
27 32
28 517
28 29
29 666
29 30
30 31
31 761
32 33
32 34
33 633
34 35
34 36
35 588
36 512
37 38
38 511
38 39
39 40
39 50
40 616
40 41
41 42
42 49
42 43
43 48
43 44
44 45
44 46
44 47
45 741
46 695
47 692
48 603
49 622
50 514
51 59
51 52
52 58
52 53
53 54
54 586
54 55
55 57
55 56
56 675
57 693
58 704
59 60
60 522
60 61
61 63
61 62
62 736
63 748
64 674
65 518
65 461
65 78
66 93
66 75
67 570
67 469
67 85
68 434
68 84
69 482
69 70
70 71
71 77
72 504
72 75
73 627
73 431
73 91
74 353
74 76
75 80
76 352
76 80
77 697
77 81
78 107
78 82
79 92
79 80
80 81
81 82
82 86
83 447
83 88
84 88
85 86
86 87
87 88
88 90
89 367
89 426
89 90
90 91
92 563
93 94
94 95
95 96
96 621
96 97
96 101
97 99
97 100
97 98
98 625
99 755
100 737
101 102
101 105
102 104
102 103
103 568
104 654
105 686
105 106
106 643
107 234
107 108
108 722
108 116
108 109
109 497
109 110
110 753
110 111
111 639
111 112
112 682
112 113
112 114
112 115
113 592
114 597
115 501
116 117
116 218
117 118
117 135
118 119
118 120
119 527
120 121
121 572
121 122
122 123
123 124
124 125
124 126
125 502
126 714
126 127
126 130
127 128
127 129
128 556
129 540
130 131
131 133
131 132
131 134
132 596
133 764
134 727
135 202
135 136
136 137
136 188
137 138
137 182
137 152
138 139
139 619
139 140
140 141
141 142
142 151
142 143
143 685
143 144
143 148
144 147
144 146
144 145
145 678
146 653
147 730
148 668
148 149
149 150
150 701
151 657
152 181
152 153
153 167
153 154
153 160
154 155
155 156
156 534
156 157
157 159
157 158
158 649
159 708
160 161
161 162
162 578
162 164
162 163
163 550
164 166
164 165
165 539
166 609
167 168
168 548
168 169
169 170
170 574
170 171
171 617
171 172
172 173
173 180
173 174
174 179
174 175
175 178
175 177
175 176
176 651
177 626
178 650
179 713
180 562
181 721
182 183
183 184
184 498
184 185
185 186
185 187
186 740
187 583
188 189
189 190
190 528
190 191
191 192
191 193
192 636
193 198
193 194
194 731
194 195
195 197
195 196
196 513
197 565
198 201
198 199
198 200
199 629
200 631
201 702
202 203
203 204
204 732
204 205
205 206
206 207
206 208
207 734
208 549
208 209
209 210
210 211
210 212
211 499
212 213
212 214
213 632
214 216
214 215
214 217
215 710
216 759
217 744
218 220
218 219
219 577
220 221
221 222
222 553
222 223
223 224
223 225
224 711
225 226
225 230
226 227
226 228
226 229
227 742
228 595
229 767
230 644
230 231
231 232
231 233
232 717
233 614
234 351
234 235
235 236
235 299
236 253
236 237
237 560
237 238
237 243
237 248
238 239
239 495
239 240
240 242
240 241
241 687
242 712
243 244
244 684
244 245
245 247
245 246
246 541
247 728
248 249
249 537
249 250
250 252
250 251
251 640
252 689
253 254
253 268
254 255
255 256
256 720
256 257
257 267
257 258
258 259
258 263
259 262
259 260
259 261
260 573
261 663
262 739
263 543
263 264
264 265
264 266
265 571
266 561
267 667
268 269
268 283
269 270
270 271
271 673
271 272
272 273
273 500
273 274
273 277
274 276
274 275
275 659
276 542
277 278
277 279
278 707
279 281
279 280
279 282
280 566
281 671
282 579
283 285
283 284
284 630
285 286
286 645
286 287
287 288
287 298
288 601
288 289
289 290
290 297
290 291
291 296
291 292
292 293
292 294
292 295
293 745
294 611
295 532
296 605
297 683
298 552
299 658
299 300
299 317
299 334
300 301
300 302
301 575
302 303
303 304
304 305
305 607
305 306
306 307
307 752
307 313
307 308
308 312
308 309
309 311
309 310
310 634
311 656
312 763
313 315
313 314
313 316
314 564
315 751
316 624
317 319
317 318
318 669
319 320
320 321
321 322
322 569
322 323
323 324
323 325
324 559
325 538
325 326
325 329
326 635
326 327
327 328
328 615
329 330
330 332
330 331
330 333
331 529
332 612
333 618
334 336
334 335
335 638
336 337
337 338
338 715
338 339
339 340
339 341
340 766
341 519
341 342
342 343
343 344
343 345
344 506
345 346
345 347
346 551
347 350
347 348
347 349
348 587
349 652
350 613
351 526
352 660
353 599
353 354
354 355
355 356
356 357
357 547
357 358
357 361
358 677
358 359
359 360
360 694
361 362
361 363
362 760
363 364
363 365
363 366
364 665
365 681
366 688
367 372
367 368
368 584
368 369
369 370
369 371
370 679
371 567
372 664
372 373
373 374
373 408
374 394
374 375
375 376
375 378
376 377
377 743
378 379
378 380
379 600
380 637
380 381
381 382
382 383
383 384
384 623
384 385
384 388
385 387
385 386
386 762
387 576
388 393
388 389
389 390
389 392
389 391
390 509
391 558
392 505
393 716
394 395
395 598
395 396
396 397
397 398
398 647
398 405
398 399
399 404
399 400
400 554
400 401
401 402
402 591
402 403
403 662
404 703
405 530
405 406
406 407
407 750
408 409
408 411
409 410
410 706
411 412
412 413
413 414
414 415
415 535
415 423
415 416
416 417
416 421
417 418
417 419
417 420
418 738
419 515
420 691
421 747
421 422
422 735
423 425
423 424
424 718
425 642
426 427
427 523
427 428
428 429
428 430
429 696
430 648
431 432
431 433
432 729
433 533
434 435
435 606
435 436
436 546
436 443
436 437
437 438
438 442
438 439
439 440
439 441
440 680
441 525
442 531
443 444
443 445
443 446
444 655
445 536
446 582
447 448
448 719
448 449
449 450
450 503
450 455
450 451
451 520
451 452
452 610
452 453
453 454
454 628
455 456
456 457
456 458
457 521
458 459
459 581
459 460
460 641
461 516
461 462
462 510
462 463
463 508
463 464
463 465
463 466
463 467
463 468
464 545
465 661
466 646
467 555
468 676
468 507
469 470
470 471
471 472
472 473
472 478
472 481
473 474
473 475
473 476
474 746
475 709
476 670
476 477
477 705
478 480
478 479
479 557
480 672
481 608
482 754
482 483
483 494
483 484
484 698
484 485
485 493
485 486
486 487
487 488
487 489
488 585
489 490
489 492
489 491
490 594
491 593
492 590
493 733
494 604
507 589
545 757
545 756
721 723
723 724
724 725
725 726
757 758
